
-3.44
-3.28
-3.2
-3.08
-3.04
-2.96
-2.96
-2.88
-2.88
-2.72
-2.64
-2.48
-2.16
-2.08
-1.92
-1.72
-1.24
-1.04
-0.92
-0.8
-0.24
-0.2
-0.12
-0.12
-0.12
-0.12
-0.08
-0.08
0.0
0.0
0.0
0.0
0.0
0.0
0.0
0.0
0.0